c 
c U(n,d) graph
c graph gen seed     : 2156
c number of vertices : 20
c max number of edges: 400
c Euclidean distance : 0.600000
c data structure     : dense
c
c           Graph Stats
c number of vertices  : 20
c nonisolated vertices: 20
c number of edges     : 105
c edge density        : 0.552632
c max degree          : 17
c avg degree          : 10.50
c min degree          : 3
p col 20 105
e 1 2
e 1 3
e 1 5
e 1 6
e 1 7
e 1 8
e 1 11
e 1 12
e 1 13
e 1 15
e 1 16
e 1 17
e 1 18
e 1 20
e 2 11
e 2 13
e 3 5
e 3 6
e 3 7
e 3 8
e 3 16
e 3 17
e 3 18
e 4 5
e 4 8
e 4 9
e 4 10
e 4 12
e 4 14
e 4 15
e 4 16
e 4 19
e 4 20
e 5 6
e 5 7
e 5 8
e 5 10
e 5 11
e 5 12
e 5 13
e 5 14
e 5 15
e 5 16
e 5 17
e 5 18
e 5 19
e 5 20
e 6 7
e 6 8
e 6 10
e 6 13
e 6 15
e 6 16
e 6 17
e 6 18
e 7 8
e 7 13
e 7 16
e 7 17
e 7 18
e 8 10
e 8 12
e 8 13
e 8 14
e 8 15
e 8 16
e 8 17
e 8 18
e 8 20
e 9 11
e 9 12
e 9 14
e 9 15
e 9 19
e 9 20
e 10 14
e 10 15
e 10 16
e 10 20
e 11 12
e 11 13
e 11 19
e 12 13
e 12 14
e 12 15
e 12 16
e 12 19
e 12 20
e 13 16
e 13 17
e 13 18
e 14 15
e 14 16
e 14 19
e 14 20
e 15 16
e 15 17
e 15 19
e 15 20
e 16 17
e 16 18
e 16 19
e 16 20
e 17 18
e 19 20
